Problem:    Pro201
Rows:       2
Columns:    10 (10 integer, 10 binary)
Non-zeros:  20
Status:     INTEGER OPTIMAL
Objective:  z = 200 (MAXimum)

   No.   Row name        Activity     Lower bound   Upper bound
------ ------------    ------------- ------------- -------------
     1 z                         200                             
     2 pesMaxim                  100                         100 

   No. Column name       Activity     Lower bound   Upper bound
------ ------------    ------------- ------------- -------------
     1 x[O1]        *              0             0             1 
     2 x[O2]        *              0             0             1 
     3 x[O3]        *              0             0             1 
     4 x[O4]        *              1             0             1 
     5 x[O5]        *              1             0             1 
     6 x[O6]        *              1             0             1 
     7 x[O7]        *              0             0             1 
     8 x[O8]        *              0             0             1 
     9 x[O9]        *              0             0             1 
    10 x[O10]       *              1             0             1 

Integer feasibility conditions:

KKT.PE: max.abs.err = 0.00e+00 on row 0
        max.rel.err = 0.00e+00 on row 0
        High quality

KKT.PB: max.abs.err = 0.00e+00 on row 0
        max.rel.err = 0.00e+00 on row 0
        High quality

End of output
